2815
1500000
998823
998823
998823
998823
998823
998823
998823
993522
993522
993522
993522
993522
993522
993522
993522
993522
993522
993522
993522
993522
993522
981608
981608
981608
981608
981608
981608
981608
981608
981608
981608
981608
981608
981608
981608
981608
980268
980268
980268
980268
980268
980268
980268
980268
980268
975716
975716
975716
975716
975716
975716
975716
975716
975716
975716
975716
975716
974300
974300
974300
974300
974300
974300
974300
974300
974300
974300
974300
974300
974300
973195
973195
973195
972840
972840
972840
972840
972840
972840
972840
972840
972347
972347
971536
971536
971536
971536
971536
971536
971536
971536
971536
971536
971536
967351
967351
967351
966829
966829
966829
966829
966829
966829
966829
966829
966829
966829
966829
966829
966829
966829
966829
961711
961711
961711
961711
961711
961711
961711
961711
961711
961711
961711
954832
954832
954832
954832
954832
954832
954832
954832
954832
954832
954832
954832
954832
953043
953043
953043
948141
948141
948141
948141
948141
945921
945921
945921
945921
945921
945921
945921
945921
945921
945921
945921
945921
945921
945605
945605
945605
945605
945605
945605
945605
939882
939882
939882
939882
939882
939882
939882
939882
939882
939882
939882
939882
939882
930224
930224
930224
930224
930224
930224
930224
930224
930224
927461
927461
927461
927461
927461
927461
927461
927461
927461
927461
927461
927461
927461
927461
927461
927461
927461
927461
927461
927461
926549
926549
926549
926549
926549
924747
924747
924747
924747
924747
924747
924747
924747
924747
924747
924747
924747
924747
924747
924747
924747
924747
924747
922587
922587
922587
922587
922587
922587
922492
922492
922492
922492
922492
922492
922492
922492
922492
922492
922492
922492
922492
918614
918614
918614
918614
918614
918614
918614
918614
917333
917333
917333
917333
917333
917333
912999
912999
912999
912999
912999
912999
909585
909585
909585
909585
909585
909585
909585
908848
908848
908848
908848
908848
908848
908848
908848
908848
908848
908848
908848
904548
900417
900417
900417
897508
897508
897508
897508
897508
897508
897508
897508
897508
897508
897508
897508
895847
895847
895847
895847
895847
895847
895847
895847
895847
895847
895847
895847
895847
895847
895847
895847
894460
894460
894460
894460
894460
894460
894460
894460
894460
894460
894460
894460
894460
894460
894460
894460
894460
894460
892991
892991
892991
892991
892991
892991
892991
892991
892991
892991
892991
892991
892991
892991
892991
892991
892991
892991
891835
891835
891835
891835
891835
891835
891835
891835
889692
889692
889692
889692
889692
889692
889692
889692
889692
889692
889692
889692
889692
889692
889692
889692
889692
888505
888505
888505
888505
888505
888505
888505
888505
888505
888505
888505
888505
888505
888505
887003
887003
887003
887003
887003
887003
887003
887003
887003
887003
887003
887003
887003
887003
887003
887003
887003
876523
876523
876523
876523
876523
876523
876523
876523
876523
876523
876523
876523
876523
876523
876523
876523
876523
876523
876523
876523
865473
865473
865473
865473
865473
865473
865473
865473
865473
865473
865473
865473
865473
865473
865473
861056
861056
861056
861056
861056
861056
861056
861056
861056
861056
861056
861056
861056
861056
861056
861056
861056
861056
861056
861056
860438
860438
860438
860438
860438
860438
860438
860438
860438
860438
860438
860277
860277
860277
860277
860277
860277
857654
857654
857654
857654
857654
857654
857654
857654
857654
857654
857654
857654
857654
857654
857654
857654
854741
854741
854741
854741
854741
854741
854741
854741
854741
854741
854741
854741
854741
854741
854741
854741
854741
854741
854741
854398
854398
854398
854398
854398
854398
854398
854398
854398
854398
854398
854398
854398
854398
854398
854398
854398
854398
854398
851775
851775
849140
849140
849140
849140
849140
849140
849140
849140
849140
847475
847475
847475
847475
847475
847475
846263
846263
846263
846263
846263
846263
846263
846263
846263
846263
846263
846263
846263
846263
846263
846263
846263
846263
846263
846263
843016
843016
843016
843016
843016
843016
843016
843016
843016
843016
840266
840266
840266
840266
840266
840266
840266
840266
840266
840266
840266
840266
840266
840266
840266
839799
839799
839799
839799
839799
839799
839799
839799
838851
838851
838851
838851
838851
838851
838851
838851
830156
830156
830156
830156
830156
828987
828987
828987
828987
828680
828680
828680
828680
828680
828680
828680
828680
828680
828680
828680
827847
827847
827847
827847
827847
827847
827847
827847
827847
827847
827847
827847
827847
824512
824512
824512
824512
824512
824512
824512
824512
824512
824512
824512
824512
824512
824512
824512
824512
824512
823052
823052
823052
823052
823052
823052
823052
823052
823052
822766
822766
822766
822766
822766
820692
820692
820692
820692
820692
820692
820692
820692
820692
820692
820692
816308
816308
816308
807116
807116
807116
807116
807116
807116
807116
807116
807116
807116
807116
807116
807116
807116
807116
807116
807116
807116
807116
801894
801894
801894
801894
801894
798995
798995
798995
798995
798995
798995
798995
798995
798995
798995
798995
798995
798995
798995
798995
798995
798995
798995
798995
798995
788293
788293
788293
788293
788293
788293
788293
788293
788293
788293
788293
788293
788293
788293
788293
783976
783976
783976
783976
783976
783976
783976
783976
783976
783976
779875
779875
779875
779875
779875
779875
779875
779875
779875
779875
779875
779875
776948
776948
776948
776948
776948
776948
776948
776948
776948
776948
776948
776948
776948
776948
776948
776948
776948
776948
776948
776948
774906
774906
774906
774906
774906
774906
774906
774906
774906
774906
774906
774906
774906
774906
774906
774906
772882
772882
772882
772882
772882
772882
771163
771163
771163
771163
771163
771163
771163
771163
771163
771163
771163
771163
771163
771163
771163
771163
771163
766776
766776
766776
766776
766776
766776
766776
766776
766776
766776
766776
766776
766776
766776
766776
765101
765101
765101
765101
765101
764489
764489
764489
764489
764489
764489
764489
764489
764489
764489
764489
764489
764489
763821
763821
763821
763821
763821
763821
763821
763821
763821
763821
763821
763821
763821
763821
763821
763821
761308
756596
756596
756596
756596
756596
756596
756596
756596
756596
756596
756596
756596
756596
756522
756522
756522
756522
756522
756522
756522
756522
756522
756522
756522
756522
756522
756522
756522
756522
756522
756522
750833
750833
750833
750833
750833
750833
750833
750833
750833
750833
750833
750833
748702
748702
748702
748702
748702
748702
748702
748702
747228
747228
747228
747228
747228
747228
747228
745790
745790
745790
745790
745790
745790
745790
745790
745790
745790
745790
745790
745790
745790
744074
744074
744074
744074
744074
744074
744074
744074
743266
743266
743266
743266
743266
743266
743266
743266
743266
743266
743266
743266
743266
743266
743266
743266
741174
741174
741174
741174
741174
741174
741174
741174
741174
741174
741174
741174
735168
735168
735168
735168
735168
735168
735168
735168
735168
735168
735168
735168
735168
735168
735168
735168
735168
735168
733441
733441
733441
733441
733441
733441
733441
733441
733441
733441
730436
730436
730436
730436
730436
730436
730436
730436
730436
730436
730436
730436
730436
730436
730436
730436
730436
730436
730436
730436
722796
722796
722796
722796
722796
722796
722796
722796
722796
722796
722796
722796
722796
722796
718161
718161
718161
718161
718161
718161
718161
718161
718161
718161
718161
715599
715599
715599
715599
714752
714752
714752
714752
714752
714752
710131
710131
710131
710131
710131
709367
709367
709367
709367
709367
709367
709367
709367
709367
709367
709367
709367
709367
709367
709367
709367
709367
709367
709367
709367
709051
709051
709051
709051
709051
709051
709051
709051
709051
709051
709051
709051
709051
709051
709051
706033
706033
706033
706033
706033
706033
706033
706033
706033
706033
706033
706033
706033
705354
705354
705354
705354
705354
705354
705354
705354
705354
705354
705354
705354
705354
705354
705354
700243
700243
700243
700243
700243
700243
700243
700243
700243
700243
700243
700243
700243
700243
700243
700243
700243
700078
700078
700078
696053
696053
696053
696053
696053
696053
691253
691253
691253
691253
691253
690770
690770
690770
690770
690594
690594
690594
690594
690594
690594
690594
690594
690594
690594
690594
690594
690594
690594
689606
689606
689606
689606
689606
689606
689606
689606
689606
689606
689606
678136
678136
678136
678136
678136
678136
678136
678136
678136
678136
674289
674289
674289
674289
674289
674289
674289
674289
674289
674289
674289
674289
674289
670291
669216
669216
669216
669216
669216
669216
669216
669216
669216
667596
667596
667596
667596
667596
667596
667596
667596
667596
667596
667596
667596
667596
667596
667596
656847
656847
656847
656847
656847
656847
656847
656847
656847
656847
656847
656847
656847
656847
656847
656847
656847
648157
648157
648157
648157
648157
648157
648157
648157
648157
648157
648157
648157
648157
648157
648157
648157
648157
648157
648157
646660
646660
646660
646660
646660
646660
646660
646660
646660
646660
646660
646660
646660
646660
646660
646660
646660
646660
646660
644205
644205
644205
640585
640585
640585
640585
640585
640585
640585
640585
640585
640585
640585
640585
640585
640585
640585
638266
638266
638266
638266
638266
638266
638266
638266
638266
638266
638266
638266
638266
638266
638266
638266
636631
636631
636631
633398
633398
633398
633398
633398
633398
633398
633398
633398
633398
633398
633398
633398
630219
630219
630219
630219
630219
630219
630219
630219
625015
625015
625015
625015
625015
625015
625015
625015
625015
625015
625015
625015
625015
625015
625015
625015
622767
622767
622767
622767
622767
622767
622767
622767
622767
622767
622767
622767
622767
622767
622767
622767
622767
619889
619889
619889
619889
619889
619889
619889
619889
619889
619889
619889
619889
619889
619119
619119
619119
619119
619119
619119
619119
619119
619119
619119
619119
619119
619119
619119
619119
619119
611102
611102
611102
611102
607154
607154
607154
607154
607154
607154
607154
601296
601296
601296
601296
600798
600798
597800
597800
597800
597800
597800
597800
597800
597800
597800
597800
593020
593020
593020
593020
593020
593020
593020
593020
593020
593020
593020
592422
592422
592422
592422
592422
592422
592422
592422
592422
592422
592422
592422
592422
592422
592422
592422
592422
592422
592422
592422
590968
590968
590968
590968
590968
590968
590968
590968
590807
590807
590807
590807
590807
590807
590807
590807
590807
576693
576693
576693
576693
576693
576693
576693
576693
576693
576693
576693
576693
576693
576693
576693
576693
576693
576693
576693
576693
576230
576230
576230
576230
576230
576230
576230
576230
576230
576230
576230
576230
576230
576230
576230
573951
573951
573951
573951
573951
573951
573951
573951
573951
573951
573951
573951
573951
573951
573951
573951
573951
572125
564176
564176
564176
564176
564176
564176
564176
564176
564176
564176
564176
564176
564176
564176
562556
562556
562556
562556
562556
562556
562556
554811
554811
554811
554811
554811
554811
554811
554811
554811
554811
554811
554811
554811
554811
554811
554811
554811
553841
553841
553841
553841
553841
553841
553841
553841
553841
553841
553841
553841
553841
553841
553841
553841
553841
553262
553262
553262
553262
552576
552576
552576
537604
537604
537604
537604
537604
537604
537604
537604
537604
537604
537604
537604
537604
537604
537604
537604
537281
537281
537281
537281
537281
537281
537281
536544
536544
536544
536544
536544
536544
536544
536544
536544
536544
536544
536544
536544
536544
536544
536544
536186
536186
536186
536186
536186
536186
536186
536186
536186
536186
532775
532775
532775
532775
532775
532775
532775
532775
532775
532775
532775
532775
532775
527300
527300
527300
527300
527300
527300
527300
527300
527300
527300
527300
527300
527300
527300
527300
527300
527300
527300
527300
525465
525465
525465
525465
525465
525465
525465
525465
525465
525465
523734
523734
523734
523734
523734
523734
523734
523734
523429
523429
523429
523429
523429
523429
523429
523429
523429
523429
522704
522704
522704
522457
522457
522457
522457
512903
512903
512903
512903
512903
512903
512903
511407
511407
511407
507959
507959
507959
507959
507959
507959
507959
507959
507959
507959
507959
507959
507959
507959
507959
507959
507959
502032
502032
502032
502032
502032
502032
502032
502032
502032
502032
502032
501358
501358
501358
501358
501358
501358
501358
501358
501358
501358
501358
501358
501358
501358
501358
501358
501358
501358
501358
501358
496045
496045
496045
496045
496045
496045
496045
496045
496045
496045
490111
490111
490111
490111
490111
490111
490111
490111
490111
490111
490111
490111
490111
490111
486127
486127
486127
486127
486127
486127
486127
486127
486127
485246
485246
485246
485246
485246
485246
485246
485246
485246
485246
485246
485246
485246
479103
479103
479103
479103
479103
479103
479103
479103
479103
478424
478424
478424
478424
478424
478424
478424
478424
478424
478424
478424
478424
478424
478424
478424
478424
478424
478269
478269
478269
478269
478269
475740
475740
475740
475740
475740
475740
475740
475740
475740
475740
475740
475740
475740
475740
475740
475740
475740
468462
468462
468462
468462
468462
466400
466400
466400
466400
466400
466400
462093
462093
462093
462093
462093
462093
462093
462093
462093
462093
462093
462093
462093
462093
446836
446836
446836
446836
446836
446836
446836
446836
446836
446836
446836
446836
446836
446836
446836
446836
446836
446836
433180
433180
433180
433180
433180
433180
433180
433180
433180
433180
433180
433180
433180
433180
433180
430814
430814
430772
430772
430772
430772
430772
430772
430772
430772
430772
430772
430772
430772
430772
430772
429133
429133
426993
426993
426993
426993
426993
426993
426993
424614
424614
424614
424614
424614
424614
424614
424614
424614
424614
424614
424614
424614
424614
424614
424614
424614
421781
421781
421781
421781
421781
421781
421781
421781
421781
421781
421781
421781
421552
421552
421552
421552
421552
421552
421552
421552
421552
421552
421552
421436
421436
421436
421436
421436
419908
419908
419908
419908
419908
419908
419908
419908
419908
419908
419908
419908
419908
419908
419908
419908
419908
419908
419908
418060
418060
418060
418060
418060
418060
418060
418060
418060
418060
418060
418060
418060
418060
418060
415189
415189
415189
415189
415189
415189
415189
414287
414287
414287
414287
414287
414287
414287
414287
408061
408061
408061
408061
408061
408061
408061
408061
408061
408061
408061
408061
408061
408061
408061
408061
407816
407816
407816
407816
407816
407816
407816
401183
401183
401183
401183
401183
401183
401183
401183
401183
401183
400529
400529
400529
400529
400529
400529
400529
400529
387415
387415
387415
387415
387415
387415
387415
387415
387415
387415
387415
386820
386820
386820
386820
386820
386820
386820
386820
386820
383590
383590
383590
383590
383078
383078
383078
383078
383078
383078
383078
383078
383078
383078
383078
383078
383078
383078
383078
383078
383078
383078
383078
374522
374522
374522
374522
374522
374522
374522
374522
374522
374522
374522
374522
374522
374522
374522
374522
374522
374522
374522
374522
369620
369620
369620
369620
369620
369620
369620
369620
369620
369620
369620
369620
369620
369620
369620
369620
366894
366894
366894
366894
366894
366894
365623
365623
365623
365623
365623
365623
365623
365623
365623
365623
359579
359579
359579
353389
353389
353389
352298
352298
352298
352298
352298
352298
352298
352298
352298
351971
351971
351971
351971
351971
351971
351971
351971
351971
351971
351971
351971
351971
351971
351971
351971
351971
350044
350044
350044
350044
350044
350044
350044
350044
350044
350044
350044
350044
350044
350044
350044
350044
349391
349391
349391
349391
349391
349391
349391
349391
349391
349391
349391
349391
349391
349391
349391
349391
349391
349391
345391
345391
345391
345391
345391
345391
344691
344691
344691
344691
344691
344691
344691
344691
344691
344691
344691
344691
344691
343145
343145
343145
343145
343145
343145
343145
343145
343145
343110
343110
343110
343110
343110
343110
343110
343110
343110
343110
342585
342585
342585
342585
342585
342585
342585
342585
342585
342585
342585
342585
342585
342585
342585
342585
342585
338307
338307
338307
338307
338307
338307
338307
338307
338307
338307
338307
338307
338307
337619
337619
337619
337619
337619
337619
337619
337619
337619
337619
337619
337619
337619
337619
337619
337619
337619
337619
337619
334943
334943
334943
334943
334434
334434
334434
334434
334434
334434
334434
334434
334434
334434
334434
334434
334434
334434
330571
330571
330571
330571
330571
330571
330571
330571
330571
330571
330571
330571
330571
330571
330571
324536
324536
324536
324536
324536
324536
324536
324536
324536
324536
324536
324536
324536
324536
324030
324030
324030
324030
324030
324030
324030
316686
316686
316686
316686
316686
316686
316686
316686
316686
316686
316686
316686
316686
316686
316686
316686
316686
316686
315722
315722
315722
315722
315722
315722
315309
315309
315309
315309
315309
315309
315309
315309
315309
315309
315309
315309
315309
311853
311853
311853
311853
311853
311853
311853
311853
311853
311853
311853
311853
311853
311853
310500
310500
310500
310500
310500
310500
310500
310500
310500
306818
306818
306303
306303
306303
306303
306303
306303
306303
306303
306303
306303
306303
306303
306303
306303
306303
306303
306303
306303
306303
306303
301683
301683
301683
301683
301683
301683
301683
298782
298782
298782
298782
298782
298782
298782
298782
298782
296538
296538
296538
296538
296538
296538
296538
296538
296538
296538
296538
296538
296538
296538
295785
295785
295785
295785
295785
295785
295785
295785
295785
295785
295785
295785
295785
295785
295785
295785
295785
282977
282977
282977
282977
282977
282977
282977
282977
282977
282977
282977
282977
282977
282977
282977
282977
282977
282977
282977
282650
278508
278508
278508
278508
278508
278508
278508
278508
278508
278508
278508
278508
278508
278508
278508
278508
274708
274708
274708
274708
274708
274708
274708
274708
274708
274708
274708
274708
274708
274708
274708
274708
274708
274708
274708
274708
273502
273502
273502
273502
273502
273502
273502
273502
273502
273502
273502
273502
273502
273502
273502
273502
273502
273502
269583
269583
269583
269583
269583
269583
269583
269583
265257
265257
265257
265257
265257
265257
265257
265257
265257
263824
263824
263824
263824
263824
263824
263824
263824
263824
263824
263824
263824
263824
263824
263824
263824
262910
262910
262910
262910
262910
262910
262910
262910
262910
262910
262910
262910
262910
262910
262910
262910
260203
260203
260203
260203
260203
260203
260203
260203
254043
254043
254043
254043
254043
254043
254043
254043
254043
254043
254043
254043
254043
254043
254043
254043
253883
253883
253883
253883
253883
253883
253883
253883
253883
253883
253883
253883
253883
253883
253883
253883
253883
253883
253883
253883
250685
250685
250685
250685
250685
250685
242297
242297
242297
242297
242297
242297
242297
242297
242297
242297
242297
242297
242297
232229
232229
232229
232229
232229
232229
232229
232229
232229
232229
232229
232229
232229
232229
232229
227344
227344
227344
227344
227344
227344
227344
227344
227344
227344
227344
227344
227344
227344
210130
210130
210130
210130
210130
210130
205748
205748
205748
205748
205748
205499
205499
205499
205499
205499
205499
205499
205499
205499
204624
204624
204624
204624
204624
204624
204624
204624
204624
204624
204624
204624
204624
204624
204624
204408
204408
204408
204408
204408
204408
204408
204408
204408
204408
204408
201750
201750
201750
201750
201750
201750
201750
200005
200005
200005
200005
200005
200005
200005
200005
200005
200005
200005
200005
200005
200005
200005
